30 30
20
3 3 27 6
3 4 27 26
3 5 11 25
3 6 27 0
3 7 20 23
3 8 27 18
3 9 23 9
3 10 20 13
3 11 14 19
3 13 20 0
3 14 17 16
3 16 17 0
3 19 14 0
3 25 11 0
4 3 26 15
4 4 23 26
4 6 26 9
4 8 23 18
4 9 23 0
11 30 0 0
